certificates/rado_a11_c289_N30.cnf
c Rad2 upper bound instance: x1 + 11*x2 - x3 = 289, interval [1,30]
p cnf 30 162
1 9 27 0
-1 -9 -27 0
1 20 28 0
-1 -20 -28 0
2 10 27 0
-2 -10 -27 0
2 21 28 0
-2 -21 -28 0
3 11 27 0
-3 -11 -27 0
3 22 28 0
-3 -22 -28 0
1 4 26 0
-1 -4 -26 0
4 12 27 0
-4 -12 -27 0
4 23 28 0
-4 -23 -28 0
2 5 26 0
-2 -5 -26 0
5 13 27 0
-5 -13 -27 0
5 24 28 0
-5 -24 -28 0
3 6 26 0
-3 -6 -26 0
6 14 27 0
-6 -14 -27 0
6 25 28 0
-6 -25 -28 0
4 7 26 0
-4 -7 -26 0
7 15 27 0
-7 -15 -27 0
7 26 28 0
-7 -26 -28 0
5 8 26 0
-5 -8 -26 0
8 16 27 0
-8 -16 -27 0
8 27 28 0
-8 -27 -28 0
6 9 26 0
-6 -9 -26 0
9 17 27 0
-9 -17 -27 0
9 28 0
-9 -28 0
7 10 26 0
-7 -10 -26 0
10 18 27 0
-10 -18 -27 0
10 28 29 0
-10 -28 -29 0
8 11 26 0
-8 -11 -26 0
11 19 27 0
-11 -19 -27 0
11 28 30 0
-11 -28 -30 0
9 12 26 0
-9 -12 -26 0
12 20 27 0
-12 -20 -27 0
10 13 26 0
-10 -13 -26 0
13 21 27 0
-13 -21 -27 0
11 14 26 0
-11 -14 -26 0
14 22 27 0
-14 -22 -27 0
1 15 25 0
-1 -15 -25 0
12 15 26 0
-12 -15 -26 0
15 23 27 0
-15 -23 -27 0
2 16 25 0
-2 -16 -25 0
13 16 26 0
-13 -16 -26 0
16 24 27 0
-16 -24 -27 0
3 17 25 0
-3 -17 -25 0
14 17 26 0
-14 -17 -26 0
17 25 27 0
-17 -25 -27 0
4 18 25 0
-4 -18 -25 0
15 18 26 0
-15 -18 -26 0
18 26 27 0
-18 -26 -27 0
5 19 25 0
-5 -19 -25 0
16 19 26 0
-16 -19 -26 0
19 27 0
-19 -27 0
6 20 25 0
-6 -20 -25 0
17 20 26 0
-17 -20 -26 0
20 27 28 0
-20 -27 -28 0
7 21 25 0
-7 -21 -25 0
18 21 26 0
-18 -21 -26 0
21 27 29 0
-21 -27 -29 0
8 22 25 0
-8 -22 -25 0
19 22 26 0
-19 -22 -26 0
22 27 30 0
-22 -27 -30 0
9 23 25 0
-9 -23 -25 0
20 23 26 0
-20 -23 -26 0
10 24 25 0
-10 -24 -25 0
21 24 26 0
-21 -24 -26 0
11 25 0
-11 -25 0
22 25 26 0
-22 -25 -26 0
1 24 26 0
-1 -24 -26 0
12 25 26 0
-12 -25 -26 0
23 26 0
-23 -26 0
2 24 27 0
-2 -24 -27 0
13 25 27 0
-13 -25 -27 0
24 26 27 0
-24 -26 -27 0
3 24 28 0
-3 -24 -28 0
14 25 28 0
-14 -25 -28 0
25 26 28 0
-25 -26 -28 0
4 24 29 0
-4 -24 -29 0
15 25 29 0
-15 -25 -29 0
26 29 0
-26 -29 0
5 24 30 0
-5 -24 -30 0
16 25 30 0
-16 -25 -30 0
26 27 30 0
-26 -27 -30 0
