certificates/rado_a11_c289_N30.drat
-28 26 -30 0
26 -30 0
d -28 26 -30 0
-30 0
28 -26 0
-26 0
23 0
29 0
27 0
-19 0
-21 0
-15 0
16 0
22 0
18 0
24 0
12 0
-8 0
0
